n_res = 4;
rc = [ 23, 16, 16, 16 ];
n_tasks = 30;
d = [ 9, 9, 2, 2, 1, 2, 10, 5, 3, 4, 3, 6, 6, 2, 6, 6, 4, 5, 1, 3, 9, 3, 7, 3, 1, 2, 2, 7, 7, 1 ];
rr = [| 2, 0, 0, 6, 0, 0, 5, 1, 0, 5, 0, 1, 0, 10, 0, 0, 0, 10, 6, 0, 6, 10, 8, 0, 0, 0, 3, 2, 0, 8
      | 0, 10, 5, 3, 0, 0, 0, 0, 3, 7, 0, 0, 2, 0, 2, 1, 0, 0, 3, 0, 0, 0, 0, 2, 10, 0, 9, 6, 0, 9
      | 0, 4, 0, 9, 7, 6, 0, 0, 9, 0, 2, 0, 0, 0, 0, 4, 10, 0, 0, 0, 2, 6, 0, 0, 2, 2, 0, 0, 8, 3
      | 0, 0, 0, 0, 0, 2, 4, 6, 0, 9, 0, 0, 0, 4, 1, 10, 3, 0, 1, 1, 0, 8, 2, 4, 0, 1, 10, 8, 9, 5 |];
suc = [ { 2 }, 
        { 1 }, 
        { 4 }, 
        { 3 }, 
        { 6 }, 
        { 5 }, 
        { 8 }, 
        { 7 }, 
        { 10 }, 
        { 9 }, 
        { 12 }, 
        { 11 }, 
        { 14 }, 
        { 13 }, 
        { 16 }, 
        { 15 }, 
        { 18 }, 
        { 17 }, 
        { 20 }, 
        { 19 }, 
        { 22 }, 
        { 21 }, 
        { 24 }, 
        { 23 }, 
        { 26 }, 
        { 25 }, 
        { 28 }, 
        { 27 }, 
        { 30 }, 
        { 29 }]; 
